data/lp_files/q3/102_3.lp
\ Model foo
\ LP format - for model browsing. Use MPS format to capture full model detail.
Minimize
  z
Subject To
 allocateEach[1]: x[1,1] + x[2,1] + x[3,1] + x[4,1] + x[5,1] + x[6,1] = 1
 allocateEach[2]: x[1,2] + x[2,2] + x[3,2] + x[4,2] + x[5,2] + x[6,2] = 1
 allocateAllCash: cashProportion[1] + cashProportion[2] + cashProportion[3]
   + cashProportion[4] + cashProportion[5] + cashProportion[6] = 1
 findWorstP[1,2]: z + 0.2074473602323411 cashProportion[1]
   - 0.2074473602323411 cashProportion[2] + 0.0285240120319469 x[1,1]
   + 0.7640286277357121 x[1,2] - 0.0285240120319469 x[2,1]
   - 0.7640286277357121 x[2,2] >= 0
 findWorstP[1,3]: z + 0.2074473602323411 cashProportion[1]
   - 0.2074473602323411 cashProportion[3] + 0.0285240120319469 x[1,1]
   + 0.7640286277357121 x[1,2] - 0.0285240120319469 x[3,1]
   - 0.7640286277357121 x[3,2] >= 0
 findWorstP[1,4]: z + 0.2074473602323411 cashProportion[1]
   - 0.2074473602323411 cashProportion[4] + 0.0285240120319469 x[1,1]
   + 0.7640286277357121 x[1,2] - 0.0285240120319469 x[4,1]
   - 0.7640286277357121 x[4,2] >= 0
 findWorstP[1,5]: z + 0.2074473602323411 cashProportion[1]
   - 0.2074473602323411 cashProportion[5] + 0.0285240120319469 x[1,1]
   + 0.7640286277357121 x[1,2] - 0.0285240120319469 x[5,1]
   - 0.7640286277357121 x[5,2] >= 0
 findWorstP[1,6]: z + 0.2074473602323411 cashProportion[1]
   - 0.2074473602323411 cashProportion[6] + 0.0285240120319469 x[1,1]
   + 0.7640286277357121 x[1,2] - 0.0285240120319469 x[6,1]
   - 0.7640286277357121 x[6,2] >= 0
 findWorstP[2,1]: z - 0.1323363991265798 cashProportion[1]
   + 0.1323363991265798 cashProportion[2] - 0.6225104214914312 x[1,1]
   - 0.245153179381989 x[1,2] + 0.6225104214914312 x[2,1]
   + 0.245153179381989 x[2,2] >= 0
 findWorstP[2,3]: z + 0.1323363991265798 cashProportion[2]
   - 0.1323363991265798 cashProportion[3] + 0.6225104214914312 x[2,1]
   + 0.245153179381989 x[2,2] - 0.6225104214914312 x[3,1]
   - 0.245153179381989 x[3,2] >= 0
 findWorstP[2,4]: z + 0.1323363991265798 cashProportion[2]
   - 0.1323363991265798 cashProportion[4] + 0.6225104214914312 x[2,1]
   + 0.245153179381989 x[2,2] - 0.6225104214914312 x[4,1]
   - 0.245153179381989 x[4,2] >= 0
 findWorstP[2,5]: z + 0.1323363991265798 cashProportion[2]
   - 0.1323363991265798 cashProportion[5] + 0.6225104214914312 x[2,1]
   + 0.245153179381989 x[2,2] - 0.6225104214914312 x[5,1]
   - 0.245153179381989 x[5,2] >= 0
 findWorstP[2,6]: z + 0.1323363991265798 cashProportion[2]
   - 0.1323363991265798 cashProportion[6] + 0.6225104214914312 x[2,1]
   + 0.245153179381989 x[2,2] - 0.6225104214914312 x[6,1]
   - 0.245153179381989 x[6,2] >= 0
 findWorstP[3,1]: z - 0.2195871761089152 cashProportion[1]
   + 0.2195871761089152 cashProportion[3] - 0.2905138339920948 x[1,1]
   - 0.4898989898989898 x[1,2] + 0.2905138339920948 x[3,1]
   + 0.4898989898989898 x[3,2] >= 0
 findWorstP[3,2]: z - 0.2195871761089152 cashProportion[2]
   + 0.2195871761089152 cashProportion[3] - 0.2905138339920948 x[2,1]
   - 0.4898989898989898 x[2,2] + 0.2905138339920948 x[3,1]
   + 0.4898989898989898 x[3,2] >= 0
 findWorstP[3,4]: z + 0.2195871761089152 cashProportion[3]
   - 0.2195871761089152 cashProportion[4] + 0.2905138339920948 x[3,1]
   + 0.4898989898989898 x[3,2] - 0.2905138339920948 x[4,1]
   - 0.4898989898989898 x[4,2] >= 0
 findWorstP[3,5]: z + 0.2195871761089152 cashProportion[3]
   - 0.2195871761089152 cashProportion[5] + 0.2905138339920948 x[3,1]
   + 0.4898989898989898 x[3,2] - 0.2905138339920948 x[5,1]
   - 0.4898989898989898 x[5,2] >= 0
 findWorstP[3,6]: z + 0.2195871761089152 cashProportion[3]
   - 0.2195871761089152 cashProportion[6] + 0.2905138339920948 x[3,1]
   + 0.4898989898989898 x[3,2] - 0.2905138339920948 x[6,1]
   - 0.4898989898989898 x[6,2] >= 0
 findWorstP[4,1]: z - 0.5975500448162534 cashProportion[1]
   + 0.5975500448162534 cashProportion[4] - 0.094412907080968 x[1,1]
   - 0.3080370481027786 x[1,2] + 0.094412907080968 x[4,1]
   + 0.3080370481027786 x[4,2] >= 0
 findWorstP[4,2]: z - 0.5975500448162534 cashProportion[2]
   + 0.5975500448162534 cashProportion[4] - 0.094412907080968 x[2,1]
   - 0.3080370481027786 x[2,2] + 0.094412907080968 x[4,1]
   + 0.3080370481027786 x[4,2] >= 0
 findWorstP[4,3]: z - 0.5975500448162534 cashProportion[3]
   + 0.5975500448162534 cashProportion[4] - 0.094412907080968 x[3,1]
   - 0.3080370481027786 x[3,2] + 0.094412907080968 x[4,1]
   + 0.3080370481027786 x[4,2] >= 0
 findWorstP[4,5]: z + 0.5975500448162534 cashProportion[4]
   - 0.5975500448162534 cashProportion[5] + 0.094412907080968 x[4,1]
   + 0.3080370481027786 x[4,2] - 0.094412907080968 x[5,1]
   - 0.3080370481027786 x[5,2] >= 0
 findWorstP[4,6]: z + 0.5975500448162534 cashProportion[4]
   - 0.5975500448162534 cashProportion[6] + 0.094412907080968 x[4,1]
   + 0.3080370481027786 x[4,2] - 0.094412907080968 x[6,1]
   - 0.3080370481027786 x[6,2] >= 0
 findWorstP[5,1]: z - 0.4275331338178709 cashProportion[1]
   + 0.4275331338178709 cashProportion[5] - 0.00555793073963232 x[1,1]
   - 0.5669089354424968 x[1,2] + 0.00555793073963232 x[5,1]
   + 0.5669089354424968 x[5,2] >= 0
 findWorstP[5,2]: z - 0.4275331338178709 cashProportion[2]
   + 0.4275331338178709 cashProportion[5] - 0.00555793073963232 x[2,1]
   - 0.5669089354424968 x[2,2] + 0.00555793073963232 x[5,1]
   + 0.5669089354424968 x[5,2] >= 0
 findWorstP[5,3]: z - 0.4275331338178709 cashProportion[3]
   + 0.4275331338178709 cashProportion[5] - 0.00555793073963232 x[3,1]
   - 0.5669089354424968 x[3,2] + 0.00555793073963232 x[5,1]
   + 0.5669089354424968 x[5,2] >= 0
 findWorstP[5,4]: z - 0.4275331338178709 cashProportion[4]
   + 0.4275331338178709 cashProportion[5] - 0.00555793073963232 x[4,1]
   - 0.5669089354424968 x[4,2] + 0.00555793073963232 x[5,1]
   + 0.5669089354424968 x[5,2] >= 0
 findWorstP[5,6]: z + 0.4275331338178709 cashProportion[5]
   - 0.4275331338178709 cashProportion[6] + 0.00555793073963232 x[5,1]
   + 0.5669089354424968 x[5,2] - 0.00555793073963232 x[6,1]
   - 0.5669089354424968 x[6,2] >= 0
 findWorstP[6,1]: z - 0.1734755833116489 cashProportion[1]
   + 0.1734755833116489 cashProportion[6] - 0.5016046491456327 x[1,1]
   - 0.3249197675427183 x[1,2] + 0.5016046491456327 x[6,1]
   + 0.3249197675427183 x[6,2] >= 0
 findWorstP[6,2]: z - 0.1734755833116489 cashProportion[2]
   + 0.1734755833116489 cashProportion[6] - 0.5016046491456327 x[2,1]
   - 0.3249197675427183 x[2,2] + 0.5016046491456327 x[6,1]
   + 0.3249197675427183 x[6,2] >= 0
 findWorstP[6,3]: z - 0.1734755833116489 cashProportion[3]
   + 0.1734755833116489 cashProportion[6] - 0.5016046491456327 x[3,1]
   - 0.3249197675427183 x[3,2] + 0.5016046491456327 x[6,1]
   + 0.3249197675427183 x[6,2] >= 0
 findWorstP[6,4]: z - 0.1734755833116489 cashProportion[4]
   + 0.1734755833116489 cashProportion[6] - 0.5016046491456327 x[4,1]
   - 0.3249197675427183 x[4,2] + 0.5016046491456327 x[6,1]
   + 0.3249197675427183 x[6,2] >= 0
 findWorstP[6,5]: z - 0.1734755833116489 cashProportion[5]
   + 0.1734755833116489 cashProportion[6] - 0.5016046491456327 x[5,1]
   - 0.3249197675427183 x[5,2] + 0.5016046491456327 x[6,1]
   + 0.3249197675427183 x[6,2] >= 0
Bounds
 z <= 1
 -infinity <= cashProportion[1] <= 1
 -infinity <= cashProportion[2] <= 1
 -infinity <= cashProportion[3] <= 1
 -infinity <= cashProportion[4] <= 1
 -infinity <= cashProportion[5] <= 1
 -infinity <= cashProportion[6] <= 1
Binaries
 x[1,1] x[1,2] x[2,1] x[2,2] x[3,1] x[3,2] x[4,1] x[4,2] x[5,1] x[5,2]
 x[6,1] x[6,2]
End
