data/mps_files/q3/102_3.mps
NAME foo
ROWS
 N  OBJ
 E  allocateEach[1]
 E  allocateEach[2]
 E  allocateAllCash
 G  findWorstP[1,2]
 G  findWorstP[1,3]
 G  findWorstP[1,4]
 G  findWorstP[1,5]
 G  findWorstP[1,6]
 G  findWorstP[2,1]
 G  findWorstP[2,3]
 G  findWorstP[2,4]
 G  findWorstP[2,5]
 G  findWorstP[2,6]
 G  findWorstP[3,1]
 G  findWorstP[3,2]
 G  findWorstP[3,4]
 G  findWorstP[3,5]
 G  findWorstP[3,6]
 G  findWorstP[4,1]
 G  findWorstP[4,2]
 G  findWorstP[4,3]
 G  findWorstP[4,5]
 G  findWorstP[4,6]
 G  findWorstP[5,1]
 G  findWorstP[5,2]
 G  findWorstP[5,3]
 G  findWorstP[5,4]
 G  findWorstP[5,6]
 G  findWorstP[6,1]
 G  findWorstP[6,2]
 G  findWorstP[6,3]
 G  findWorstP[6,4]
 G  findWorstP[6,5]
COLUMNS
    z         OBJ       1
    z         findWorstP[1,2]  1
    z         findWorstP[1,3]  1
    z         findWorstP[1,4]  1
    z         findWorstP[1,5]  1
    z         findWorstP[1,6]  1
    z         findWorstP[2,1]  1
    z         findWorstP[2,3]  1
    z         findWorstP[2,4]  1
    z         findWorstP[2,5]  1
    z         findWorstP[2,6]  1
    z         findWorstP[3,1]  1
    z         findWorstP[3,2]  1
    z         findWorstP[3,4]  1
    z         findWorstP[3,5]  1
    z         findWorstP[3,6]  1
    z         findWorstP[4,1]  1
    z         findWorstP[4,2]  1
    z         findWorstP[4,3]  1
    z         findWorstP[4,5]  1
    z         findWorstP[4,6]  1
    z         findWorstP[5,1]  1
    z         findWorstP[5,2]  1
    z         findWorstP[5,3]  1
    z         findWorstP[5,4]  1
    z         findWorstP[5,6]  1
    z         findWorstP[6,1]  1
    z         findWorstP[6,2]  1
    z         findWorstP[6,3]  1
    z         findWorstP[6,4]  1
    z         findWorstP[6,5]  1
    cashProportion[1]  allocateAllCash  1
    cashProportion[1]  findWorstP[1,2]  2.0744736023234106e-01
    cashProportion[1]  findWorstP[1,3]  2.0744736023234106e-01
    cashProportion[1]  findWorstP[1,4]  2.0744736023234106e-01
    cashProportion[1]  findWorstP[1,5]  2.0744736023234106e-01
    cashProportion[1]  findWorstP[1,6]  2.0744736023234106e-01
    cashProportion[1]  findWorstP[2,1]  -1.3233639912657977e-01
    cashProportion[1]  findWorstP[3,1]  -2.1958717610891521e-01
    cashProportion[1]  findWorstP[4,1]  -5.9755004481625340e-01
    cashProportion[1]  findWorstP[5,1]  -4.2753313381787089e-01
    cashProportion[1]  findWorstP[6,1]  -1.7347558331164889e-01
    cashProportion[2]  allocateAllCash  1
    cashProportion[2]  findWorstP[1,2]  -2.0744736023234106e-01
    cashProportion[2]  findWorstP[2,1]  1.3233639912657977e-01
    cashProportion[2]  findWorstP[2,3]  1.3233639912657977e-01
    cashProportion[2]  findWorstP[2,4]  1.3233639912657977e-01
    cashProportion[2]  findWorstP[2,5]  1.3233639912657977e-01
    cashProportion[2]  findWorstP[2,6]  1.3233639912657977e-01
    cashProportion[2]  findWorstP[3,2]  -2.1958717610891521e-01
    cashProportion[2]  findWorstP[4,2]  -5.9755004481625340e-01
    cashProportion[2]  findWorstP[5,2]  -4.2753313381787089e-01
    cashProportion[2]  findWorstP[6,2]  -1.7347558331164889e-01
    cashProportion[3]  allocateAllCash  1
    cashProportion[3]  findWorstP[1,3]  -2.0744736023234106e-01
    cashProportion[3]  findWorstP[2,3]  -1.3233639912657977e-01
    cashProportion[3]  findWorstP[3,1]  2.1958717610891521e-01
    cashProportion[3]  findWorstP[3,2]  2.1958717610891521e-01
    cashProportion[3]  findWorstP[3,4]  2.1958717610891521e-01
    cashProportion[3]  findWorstP[3,5]  2.1958717610891521e-01
    cashProportion[3]  findWorstP[3,6]  2.1958717610891521e-01
    cashProportion[3]  findWorstP[4,3]  -5.9755004481625340e-01
    cashProportion[3]  findWorstP[5,3]  -4.2753313381787089e-01
    cashProportion[3]  findWorstP[6,3]  -1.7347558331164889e-01
    cashProportion[4]  allocateAllCash  1
    cashProportion[4]  findWorstP[1,4]  -2.0744736023234106e-01
    cashProportion[4]  findWorstP[2,4]  -1.3233639912657977e-01
    cashProportion[4]  findWorstP[3,4]  -2.1958717610891521e-01
    cashProportion[4]  findWorstP[4,1]  5.9755004481625340e-01
    cashProportion[4]  findWorstP[4,2]  5.9755004481625340e-01
    cashProportion[4]  findWorstP[4,3]  5.9755004481625340e-01
    cashProportion[4]  findWorstP[4,5]  5.9755004481625340e-01
    cashProportion[4]  findWorstP[4,6]  5.9755004481625340e-01
    cashProportion[4]  findWorstP[5,4]  -4.2753313381787089e-01
    cashProportion[4]  findWorstP[6,4]  -1.7347558331164889e-01
    cashProportion[5]  allocateAllCash  1
    cashProportion[5]  findWorstP[1,5]  -2.0744736023234106e-01
    cashProportion[5]  findWorstP[2,5]  -1.3233639912657977e-01
    cashProportion[5]  findWorstP[3,5]  -2.1958717610891521e-01
    cashProportion[5]  findWorstP[4,5]  -5.9755004481625340e-01
    cashProportion[5]  findWorstP[5,1]  4.2753313381787089e-01
    cashProportion[5]  findWorstP[5,2]  4.2753313381787089e-01
    cashProportion[5]  findWorstP[5,3]  4.2753313381787089e-01
    cashProportion[5]  findWorstP[5,4]  4.2753313381787089e-01
    cashProportion[5]  findWorstP[5,6]  4.2753313381787089e-01
    cashProportion[5]  findWorstP[6,5]  -1.7347558331164889e-01
    cashProportion[6]  allocateAllCash  1
    cashProportion[6]  findWorstP[1,6]  -2.0744736023234106e-01
    cashProportion[6]  findWorstP[2,6]  -1.3233639912657977e-01
    cashProportion[6]  findWorstP[3,6]  -2.1958717610891521e-01
    cashProportion[6]  findWorstP[4,6]  -5.9755004481625340e-01
    cashProportion[6]  findWorstP[5,6]  -4.2753313381787089e-01
    cashProportion[6]  findWorstP[6,1]  1.7347558331164889e-01
    cashProportion[6]  findWorstP[6,2]  1.7347558331164889e-01
    cashProportion[6]  findWorstP[6,3]  1.7347558331164889e-01
    cashProportion[6]  findWorstP[6,4]  1.7347558331164889e-01
    cashProportion[6]  findWorstP[6,5]  1.7347558331164889e-01
    MARKER    'MARKER'                 'INTORG'
    x[1,1]    allocateEach[1]  1
    x[1,1]    findWorstP[1,2]  2.8524012031946894e-02
    x[1,1]    findWorstP[1,3]  2.8524012031946894e-02
    x[1,1]    findWorstP[1,4]  2.8524012031946894e-02
    x[1,1]    findWorstP[1,5]  2.8524012031946894e-02
    x[1,1]    findWorstP[1,6]  2.8524012031946894e-02
    x[1,1]    findWorstP[2,1]  -6.2251042149143121e-01
    x[1,1]    findWorstP[3,1]  -2.9051383399209479e-01
    x[1,1]    findWorstP[4,1]  -9.4412907080968042e-02
    x[1,1]    findWorstP[5,1]  -5.5579307396323207e-03
    x[1,1]    findWorstP[6,1]  -5.0160464914563274e-01
    x[1,2]    allocateEach[2]  1
    x[1,2]    findWorstP[1,2]  7.6402862773571212e-01
    x[1,2]    findWorstP[1,3]  7.6402862773571212e-01
    x[1,2]    findWorstP[1,4]  7.6402862773571212e-01
    x[1,2]    findWorstP[1,5]  7.6402862773571212e-01
    x[1,2]    findWorstP[1,6]  7.6402862773571212e-01
    x[1,2]    findWorstP[2,1]  -2.4515317938198902e-01
    x[1,2]    findWorstP[3,1]  -4.8989898989898983e-01
    x[1,2]    findWorstP[4,1]  -3.0803704810277860e-01
    x[1,2]    findWorstP[5,1]  -5.6690893544249676e-01
    x[1,2]    findWorstP[6,1]  -3.2491976754271834e-01
    x[2,1]    allocateEach[1]  1
    x[2,1]    findWorstP[1,2]  -2.8524012031946894e-02
    x[2,1]    findWorstP[2,1]  6.2251042149143121e-01
    x[2,1]    findWorstP[2,3]  6.2251042149143121e-01
    x[2,1]    findWorstP[2,4]  6.2251042149143121e-01
    x[2,1]    findWorstP[2,5]  6.2251042149143121e-01
    x[2,1]    findWorstP[2,6]  6.2251042149143121e-01
    x[2,1]    findWorstP[3,2]  -2.9051383399209479e-01
    x[2,1]    findWorstP[4,2]  -9.4412907080968042e-02
    x[2,1]    findWorstP[5,2]  -5.5579307396323207e-03
    x[2,1]    findWorstP[6,2]  -5.0160464914563274e-01
    x[2,2]    allocateEach[2]  1
    x[2,2]    findWorstP[1,2]  -7.6402862773571212e-01
    x[2,2]    findWorstP[2,1]  2.4515317938198902e-01
    x[2,2]    findWorstP[2,3]  2.4515317938198902e-01
    x[2,2]    findWorstP[2,4]  2.4515317938198902e-01
    x[2,2]    findWorstP[2,5]  2.4515317938198902e-01
    x[2,2]    findWorstP[2,6]  2.4515317938198902e-01
    x[2,2]    findWorstP[3,2]  -4.8989898989898983e-01
    x[2,2]    findWorstP[4,2]  -3.0803704810277860e-01
    x[2,2]    findWorstP[5,2]  -5.6690893544249676e-01
    x[2,2]    findWorstP[6,2]  -3.2491976754271834e-01
    x[3,1]    allocateEach[1]  1
    x[3,1]    findWorstP[1,3]  -2.8524012031946894e-02
    x[3,1]    findWorstP[2,3]  -6.2251042149143121e-01
    x[3,1]    findWorstP[3,1]  2.9051383399209479e-01
    x[3,1]    findWorstP[3,2]  2.9051383399209479e-01
    x[3,1]    findWorstP[3,4]  2.9051383399209479e-01
    x[3,1]    findWorstP[3,5]  2.9051383399209479e-01
    x[3,1]    findWorstP[3,6]  2.9051383399209479e-01
    x[3,1]    findWorstP[4,3]  -9.4412907080968042e-02
    x[3,1]    findWorstP[5,3]  -5.5579307396323207e-03
    x[3,1]    findWorstP[6,3]  -5.0160464914563274e-01
    x[3,2]    allocateEach[2]  1
    x[3,2]    findWorstP[1,3]  -7.6402862773571212e-01
    x[3,2]    findWorstP[2,3]  -2.4515317938198902e-01
    x[3,2]    findWorstP[3,1]  4.8989898989898983e-01
    x[3,2]    findWorstP[3,2]  4.8989898989898983e-01
    x[3,2]    findWorstP[3,4]  4.8989898989898983e-01
    x[3,2]    findWorstP[3,5]  4.8989898989898983e-01
    x[3,2]    findWorstP[3,6]  4.8989898989898983e-01
    x[3,2]    findWorstP[4,3]  -3.0803704810277860e-01
    x[3,2]    findWorstP[5,3]  -5.6690893544249676e-01
    x[3,2]    findWorstP[6,3]  -3.2491976754271834e-01
    x[4,1]    allocateEach[1]  1
    x[4,1]    findWorstP[1,4]  -2.8524012031946894e-02
    x[4,1]    findWorstP[2,4]  -6.2251042149143121e-01
    x[4,1]    findWorstP[3,4]  -2.9051383399209479e-01
    x[4,1]    findWorstP[4,1]  9.4412907080968042e-02
    x[4,1]    findWorstP[4,2]  9.4412907080968042e-02
    x[4,1]    findWorstP[4,3]  9.4412907080968042e-02
    x[4,1]    findWorstP[4,5]  9.4412907080968042e-02
    x[4,1]    findWorstP[4,6]  9.4412907080968042e-02
    x[4,1]    findWorstP[5,4]  -5.5579307396323207e-03
    x[4,1]    findWorstP[6,4]  -5.0160464914563274e-01
    x[4,2]    allocateEach[2]  1
    x[4,2]    findWorstP[1,4]  -7.6402862773571212e-01
    x[4,2]    findWorstP[2,4]  -2.4515317938198902e-01
    x[4,2]    findWorstP[3,4]  -4.8989898989898983e-01
    x[4,2]    findWorstP[4,1]  3.0803704810277860e-01
    x[4,2]    findWorstP[4,2]  3.0803704810277860e-01
    x[4,2]    findWorstP[4,3]  3.0803704810277860e-01
    x[4,2]    findWorstP[4,5]  3.0803704810277860e-01
    x[4,2]    findWorstP[4,6]  3.0803704810277860e-01
    x[4,2]    findWorstP[5,4]  -5.6690893544249676e-01
    x[4,2]    findWorstP[6,4]  -3.2491976754271834e-01
    x[5,1]    allocateEach[1]  1
    x[5,1]    findWorstP[1,5]  -2.8524012031946894e-02
    x[5,1]    findWorstP[2,5]  -6.2251042149143121e-01
    x[5,1]    findWorstP[3,5]  -2.9051383399209479e-01
    x[5,1]    findWorstP[4,5]  -9.4412907080968042e-02
    x[5,1]    findWorstP[5,1]  5.5579307396323207e-03
    x[5,1]    findWorstP[5,2]  5.5579307396323207e-03
    x[5,1]    findWorstP[5,3]  5.5579307396323207e-03
    x[5,1]    findWorstP[5,4]  5.5579307396323207e-03
    x[5,1]    findWorstP[5,6]  5.5579307396323207e-03
    x[5,1]    findWorstP[6,5]  -5.0160464914563274e-01
    x[5,2]    allocateEach[2]  1
    x[5,2]    findWorstP[1,5]  -7.6402862773571212e-01
    x[5,2]    findWorstP[2,5]  -2.4515317938198902e-01
    x[5,2]    findWorstP[3,5]  -4.8989898989898983e-01
    x[5,2]    findWorstP[4,5]  -3.0803704810277860e-01
    x[5,2]    findWorstP[5,1]  5.6690893544249676e-01
    x[5,2]    findWorstP[5,2]  5.6690893544249676e-01
    x[5,2]    findWorstP[5,3]  5.6690893544249676e-01
    x[5,2]    findWorstP[5,4]  5.6690893544249676e-01
    x[5,2]    findWorstP[5,6]  5.6690893544249676e-01
    x[5,2]    findWorstP[6,5]  -3.2491976754271834e-01
    x[6,1]    allocateEach[1]  1
    x[6,1]    findWorstP[1,6]  -2.8524012031946894e-02
    x[6,1]    findWorstP[2,6]  -6.2251042149143121e-01
    x[6,1]    findWorstP[3,6]  -2.9051383399209479e-01
    x[6,1]    findWorstP[4,6]  -9.4412907080968042e-02
    x[6,1]    findWorstP[5,6]  -5.5579307396323207e-03
    x[6,1]    findWorstP[6,1]  5.0160464914563274e-01
    x[6,1]    findWorstP[6,2]  5.0160464914563274e-01
    x[6,1]    findWorstP[6,3]  5.0160464914563274e-01
    x[6,1]    findWorstP[6,4]  5.0160464914563274e-01
    x[6,1]    findWorstP[6,5]  5.0160464914563274e-01
    x[6,2]    allocateEach[2]  1
    x[6,2]    findWorstP[1,6]  -7.6402862773571212e-01
    x[6,2]    findWorstP[2,6]  -2.4515317938198902e-01
    x[6,2]    findWorstP[3,6]  -4.8989898989898983e-01
    x[6,2]    findWorstP[4,6]  -3.0803704810277860e-01
    x[6,2]    findWorstP[5,6]  -5.6690893544249676e-01
    x[6,2]    findWorstP[6,1]  3.2491976754271834e-01
    x[6,2]    findWorstP[6,2]  3.2491976754271834e-01
    x[6,2]    findWorstP[6,3]  3.2491976754271834e-01
    x[6,2]    findWorstP[6,4]  3.2491976754271834e-01
    x[6,2]    findWorstP[6,5]  3.2491976754271834e-01
    MARKER    'MARKER'                 'INTEND'
RHS
    RHS1      allocateEach[1]  1
    RHS1      allocateEach[2]  1
    RHS1      allocateAllCash  1
BOUNDS
 UP BND1      z         1
 MI BND1      cashProportion[1]
 UP BND1      cashProportion[1]  1
 MI BND1      cashProportion[2]
 UP BND1      cashProportion[2]  1
 MI BND1      cashProportion[3]
 UP BND1      cashProportion[3]  1
 MI BND1      cashProportion[4]
 UP BND1      cashProportion[4]  1
 MI BND1      cashProportion[5]
 UP BND1      cashProportion[5]  1
 MI BND1      cashProportion[6]
 UP BND1      cashProportion[6]  1
 BV BND1      x[1,1]  
 BV BND1      x[1,2]  
 BV BND1      x[2,1]  
 BV BND1      x[2,2]  
 BV BND1      x[3,1]  
 BV BND1      x[3,2]  
 BV BND1      x[4,1]  
 BV BND1      x[4,2]  
 BV BND1      x[5,1]  
 BV BND1      x[5,2]  
 BV BND1      x[6,1]  
 BV BND1      x[6,2]  
ENDATA
